9
2147483647 47 27 53 20 29 100 9 72 
47 2147483647 7 16 36 79 87 52 2 
27 7 2147483647 80 45 35 99 92 98 
53 16 80 2147483647 84 55 17 43 3 
20 36 45 84 2147483647 56 85 4 5 
29 79 35 55 56 2147483647 11 79 75 
100 87 99 17 85 11 2147483647 55 89 
9 52 92 43 4 79 55 2147483647 45 
72 2 98 3 5 75 89 45 2147483647 
